NAME: tsp5_28
COMMENT: 5-tsp problem (Padberg/Rinaldi)
TYPE: TSP
DIMENSION: 5
EDGE_WEIGHT_TYPE : EUC_2D
NODE_COORD_SECTION
1.00 23.63 23.12
2.00 31.85 12.04
3.00 25.45 14.31
4.00 3.46 4.88
5.00 0.02 15.14
